p cnf 144 1
144 0
w 1 0.992464
w 2 1 1
w 2 -1 0
w 3 2 1
w 3 -2 0
w 4 3 0.06453
w 4 -3 0.650933
w 5 4 0
w 5 -4 1
w 6 5 0.191458
w 6 -5 0.0302671
w 7 6 0.262243
w 7 -6 0.162836
w 8 7 0.0143618
w 8 -7 0.834823
w 9 8 0
w 9 -8 1
w 10 9 1
w 10 -9 0
w 11 10 0.803294
w 11 -10 0.0268897
w 12 11 0
w 12 -11 1
w 13 1 1
w 13 -1 0
w 14 13 2 0.260559
w 14 13 -2 0.845346
w 14 -13 2 0.867203
w 14 -13 -2 0.486949
w 15 14 3 0.558643
w 15 14 -3 0.551479
w 15 -14 3 0.154038
w 15 -14 -3 0.878071
w 16 15 4 0.863689
w 16 15 -4 0.0695292
w 16 -15 4 0.620756
w 16 -15 -4 0.681086
w 17 16 5 1
w 17 16 -5 1
w 17 -16 5 0
w 17 -16 -5 1
w 18 17 6 0.408038
w 18 17 -6 0.78229
w 18 -17 6 0.68128
w 18 -17 -6 0.100242
w 19 18 7 0.708169
w 19 18 -7 0.505775
w 19 -18 7 0.723404
w 19 -18 -7 0.976264
w 20 19 8 0.394458
w 20 19 -8 0.236823
w 20 -19 8 0.754263
w 20 -19 -8 0.261661
w 21 20 9 0.257368
w 21 20 -9 0.820305
w 21 -20 9 0.275251
w 21 -20 -9 0.411406
w 22 21 10 0.86574
w 22 21 -10 0.275095
w 22 -21 10 0.767905
w 22 -21 -10 0.486496
w 23 22 11 0.0996775
w 23 22 -11 0.270088
w 23 -22 11 0.604376
w 23 -22 -11 0.445812
w 24 23 12 0.472281
w 24 23 -12 0.85385
w 24 -23 12 0.670793
w 24 -23 -12 0.153561
w 25 13 0.256376
w 25 -13 0.86173
w 26 25 14 0
w 26 25 -14 1
w 26 -25 14 1
w 26 -25 -14 0
w 27 26 15 0
w 27 26 -15 0
w 27 -26 15 0
w 27 -26 -15 1
w 28 27 16 1
w 28 27 -16 0
w 28 -27 16 0
w 28 -27 -16 1
w 29 28 17 1
w 29 28 -17 0
w 29 -28 17 1
w 29 -28 -17 1
w 30 29 18 0.627471
w 30 29 -18 0.467975
w 30 -29 18 0.584667
w 30 -29 -18 0.0997525
w 31 30 19 0
w 31 30 -19 1
w 31 -30 19 1
w 31 -30 -19 0
w 32 31 20 0
w 32 31 -20 1
w 32 -31 20 0
w 32 -31 -20 1
w 33 32 21 0.027855
w 33 32 -21 0.227614
w 33 -32 21 0.501755
w 33 -32 -21 0.826445
w 34 33 22 0.95796
w 34 33 -22 0.900285
w 34 -33 22 0.399848
w 34 -33 -22 0.112541
w 35 34 23 0.466762
w 35 34 -23 0.0350273
w 35 -34 23 0.265943
w 35 -34 -23 0.489857
w 36 35 24 1
w 36 35 -24 0
w 36 -35 24 0
w 36 -35 -24 0
w 37 25 1
w 37 -25 0
w 38 37 26 0.470395
w 38 37 -26 0.122907
w 38 -37 26 0.31407
w 38 -37 -26 0.585438
w 39 38 27 0.805686
w 39 38 -27 0.538475
w 39 -38 27 0.963258
w 39 -38 -27 0.671542
w 40 39 28 0.190871
w 40 39 -28 0.173297
w 40 -39 28 0.392775
w 40 -39 -28 0.798899
w 41 40 29 1
w 41 40 -29 0
w 41 -40 29 0
w 41 -40 -29 0
w 42 41 30 0.278826
w 42 41 -30 0.39887
w 42 -41 30 0.155366
w 42 -41 -30 0.336017
w 43 42 31 0
w 43 42 -31 1
w 43 -42 31 0
w 43 -42 -31 0
w 44 43 32 0.709985
w 44 43 -32 0.96017
w 44 -43 32 0.831081
w 44 -43 -32 0.0240551
w 45 44 33 0.689771
w 45 44 -33 0.829741
w 45 -44 33 0.0840837
w 45 -44 -33 0.653029
w 46 45 34 0.650414
w 46 45 -34 0.843901
w 46 -45 34 0.67458
w 46 -45 -34 0.0431892
w 47 46 35 0.805838
w 47 46 -35 0.33625
w 47 -46 35 0.841546
w 47 -46 -35 0.0496365
w 48 47 36 1
w 48 47 -36 0
w 48 -47 36 1
w 48 -47 -36 0
w 49 37 0.229023
w 49 -37 0.935116
w 50 49 38 0.136774
w 50 49 -38 0.424892
w 50 -49 38 0.233836
w 50 -49 -38 0.84676
w 51 50 39 0
w 51 50 -39 0
w 51 -50 39 1
w 51 -50 -39 0
w 52 51 40 1
w 52 51 -40 1
w 52 -51 40 0
w 52 -51 -40 0
w 53 52 41 0.708357
w 53 52 -41 0.894418
w 53 -52 41 0.682257
w 53 -52 -41 0.044607
w 54 53 42 0.731894
w 54 53 -42 0.513784
w 54 -53 42 0.243019
w 54 -53 -42 0.0603563
w 55 54 43 0
w 55 54 -43 1
w 55 -54 43 0
w 55 -54 -43 0
w 56 55 44 1
w 56 55 -44 1
w 56 -55 44 0
w 56 -55 -44 1
w 57 56 45 0.549251
w 57 56 -45 0.465202
w 57 -56 45 0.581179
w 57 -56 -45 0.303939
w 58 57 46 0
w 58 57 -46 1
w 58 -57 46 0
w 58 -57 -46 0
w 59 58 47 0.244017
w 59 58 -47 0.969458
w 59 -58 47 0.857692
w 59 -58 -47 0.926274
w 60 59 48 1
w 60 59 -48 1
w 60 -59 48 0
w 60 -59 -48 1
w 61 49 0.909679
w 61 -49 0.742114
w 62 61 50 0
w 62 61 -50 0
w 62 -61 50 0
w 62 -61 -50 1
w 63 62 51 1
w 63 62 -51 1
w 63 -62 51 0
w 63 -62 -51 0
w 64 63 52 1
w 64 63 -52 1
w 64 -63 52 1
w 64 -63 -52 0
w 65 64 53 0.936838
w 65 64 -53 0.706312
w 65 -64 53 0.105119
w 65 -64 -53 0.906296
w 66 65 54 0.0313934
w 66 65 -54 0.920361
w 66 -65 54 0.157659
w 66 -65 -54 0.689561
w 67 66 55 0
w 67 66 -55 1
w 67 -66 55 0
w 67 -66 -55 1
w 68 67 56 0.87842
w 68 67 -56 0.319117
w 68 -67 56 0.545303
w 68 -67 -56 0.146579
w 69 68 57 1
w 69 68 -57 1
w 69 -68 57 0
w 69 -68 -57 1
w 70 69 58 0
w 70 69 -58 0
w 70 -69 58 0
w 70 -69 -58 1
w 71 70 59 0
w 71 70 -59 1
w 71 -70 59 1
w 71 -70 -59 1
w 72 71 60 0
w 72 71 -60 1
w 72 -71 60 0
w 72 -71 -60 0
w 73 61 0.647666
w 73 -61 0.925639
w 74 73 62 0.384114
w 74 73 -62 0.777084
w 74 -73 62 0.869412
w 74 -73 -62 0.703231
w 75 74 63 0
w 75 74 -63 0
w 75 -74 63 1
w 75 -74 -63 1
w 76 75 64 0.496818
w 76 75 -64 0.361988
w 76 -75 64 0.281987
w 76 -75 -64 0.979137
w 77 76 65 0
w 77 76 -65 0
w 77 -76 65 1
w 77 -76 -65 0
w 78 77 66 0
w 78 77 -66 0
w 78 -77 66 1
w 78 -77 -66 0
w 79 78 67 0.285169
w 79 78 -67 0.0259942
w 79 -78 67 0.144156
w 79 -78 -67 0.932835
w 80 79 68 0.135148
w 80 79 -68 0.316949
w 80 -79 68 0.728718
w 80 -79 -68 0.00456059
w 81 80 69 0
w 81 80 -69 1
w 81 -80 69 0
w 81 -80 -69 1
w 82 81 70 1
w 82 81 -70 0
w 82 -81 70 1
w 82 -81 -70 0
w 83 82 71 0.600021
w 83 82 -71 0.412343
w 83 -82 71 0.777436
w 83 -82 -71 0.483868
w 84 83 72 0
w 84 83 -72 0
w 84 -83 72 0
w 84 -83 -72 1
w 85 73 0.311175
w 85 -73 0.830605
w 86 85 74 0.455331
w 86 85 -74 0.763441
w 86 -85 74 0.650382
w 86 -85 -74 0.590479
w 87 86 75 0
w 87 86 -75 1
w 87 -86 75 0
w 87 -86 -75 0
w 88 87 76 0.991216
w 88 87 -76 0.527189
w 88 -87 76 0.661259
w 88 -87 -76 0.418186
w 89 88 77 0
w 89 88 -77 1
w 89 -88 77 1
w 89 -88 -77 1
w 90 89 78 0.47137
w 90 89 -78 0.152803
w 90 -89 78 0.0134509
w 90 -89 -78 0.38497
w 91 90 79 0
w 91 90 -79 1
w 91 -90 79 1
w 91 -90 -79 0
w 92 91 80 0.688619
w 92 91 -80 0.580081
w 92 -91 80 0.524452
w 92 -91 -80 0.339
w 93 92 81 0
w 93 92 -81 1
w 93 -92 81 0
w 93 -92 -81 0
w 94 93 82 0
w 94 93 -82 1
w 94 -93 82 0
w 94 -93 -82 1
w 95 94 83 0.111364
w 95 94 -83 0.241956
w 95 -94 83 0.49042
w 95 -94 -83 0.7803
w 96 95 84 0.96179
w 96 95 -84 0.933103
w 96 -95 84 0.794892
w 96 -95 -84 0.34676
w 97 85 0
w 97 -85 1
w 98 97 86 0
w 98 97 -86 1
w 98 -97 86 0
w 98 -97 -86 1
w 99 98 87 0
w 99 98 -87 1
w 99 -98 87 1
w 99 -98 -87 1
w 100 99 88 0.249456
w 100 99 -88 0.872884
w 100 -99 88 0.134112
w 100 -99 -88 0.630647
w 101 100 89 0.809605
w 101 100 -89 0.673096
w 101 -100 89 0.684327
w 101 -100 -89 0.60609
w 102 101 90 0.926283
w 102 101 -90 0.0965102
w 102 -101 90 0.56476
w 102 -101 -90 0.707724
w 103 102 91 0
w 103 102 -91 0
w 103 -102 91 1
w 103 -102 -91 1
w 104 103 92 0
w 104 103 -92 0
w 104 -103 92 1
w 104 -103 -92 0
w 105 104 93 0.157594
w 105 104 -93 0.283032
w 105 -104 93 0.184593
w 105 -104 -93 0.64145
w 106 105 94 1
w 106 105 -94 1
w 106 -105 94 1
w 106 -105 -94 0
w 107 106 95 0.892899
w 107 106 -95 0.114119
w 107 -106 95 0.194649
w 107 -106 -95 0.577226
w 108 107 96 0.979109
w 108 107 -96 0.503509
w 108 -107 96 0.81672
w 108 -107 -96 0.54387
w 109 97 1
w 109 -97 0
w 110 109 98 1
w 110 109 -98 0
w 110 -109 98 1
w 110 -109 -98 1
w 111 110 99 0.77799
w 111 110 -99 0.669227
w 111 -110 99 0.682709
w 111 -110 -99 0.694873
w 112 111 100 0.965741
w 112 111 -100 0.879466
w 112 -111 100 0.46827
w 112 -111 -100 0.416244
w 113 112 101 0
w 113 112 -101 1
w 113 -112 101 0
w 113 -112 -101 1
w 114 113 102 0.468502
w 114 113 -102 0.075377
w 114 -113 102 0.209756
w 114 -113 -102 0.188712
w 115 114 103 0
w 115 114 -103 1
w 115 -114 103 0
w 115 -114 -103 1
w 116 115 104 0.640089
w 116 115 -104 0.638346
w 116 -115 104 0.160532
w 116 -115 -104 0.429905
w 117 116 105 0
w 117 116 -105 0
w 117 -116 105 1
w 117 -116 -105 1
w 118 117 106 0.959323
w 118 117 -106 0.771287
w 118 -117 106 0.782234
w 118 -117 -106 0.427594
w 119 118 107 0
w 119 118 -107 1
w 119 -118 107 1
w 119 -118 -107 1
w 120 119 108 0.559692
w 120 119 -108 0.654986
w 120 -119 108 0.742875
w 120 -119 -108 0.769448
w 121 109 0.797362
w 121 -109 0.482714
w 122 121 110 0.395718
w 122 121 -110 0.407212
w 122 -121 110 0.729581
w 122 -121 -110 0.0358066
w 123 122 111 1
w 123 122 -111 1
w 123 -122 111 1
w 123 -122 -111 0
w 124 123 112 0.641337
w 124 123 -112 0.818497
w 124 -123 112 0.576374
w 124 -123 -112 0.600661
w 125 124 113 0.358608
w 125 124 -113 0.0282548
w 125 -124 113 0.777315
w 125 -124 -113 0.19071
w 126 125 114 0.704476
w 126 125 -114 0.377194
w 126 -125 114 0.482523
w 126 -125 -114 0.264168
w 127 126 115 0
w 127 126 -115 1
w 127 -126 115 0
w 127 -126 -115 0
w 128 127 116 0.725006
w 128 127 -116 0.418478
w 128 -127 116 0.923543
w 128 -127 -116 0.454587
w 129 128 117 1
w 129 128 -117 1
w 129 -128 117 1
w 129 -128 -117 0
w 130 129 118 0
w 130 129 -118 1
w 130 -129 118 0
w 130 -129 -118 0
w 131 130 119 0.76593
w 131 130 -119 0.528585
w 131 -130 119 0.748189
w 131 -130 -119 0.543245
w 132 131 120 0.563214
w 132 131 -120 0.247722
w 132 -131 120 0.0964882
w 132 -131 -120 0.0457371
w 133 121 0.128668
w 133 -121 0.271135
w 134 133 122 0.00454478
w 134 133 -122 0.293895
w 134 -133 122 0.0618374
w 134 -133 -122 0.729551
w 135 134 123 0.98538
w 135 134 -123 0.184137
w 135 -134 123 0.166657
w 135 -134 -123 0.954481
w 136 135 124 0.0866527
w 136 135 -124 0.432417
w 136 -135 124 0.886486
w 136 -135 -124 0.680255
w 137 136 125 0.0626328
w 137 136 -125 0.850231
w 137 -136 125 0.271625
w 137 -136 -125 0.828563
w 138 137 126 1
w 138 137 -126 0
w 138 -137 126 1
w 138 -137 -126 0
w 139 138 127 0.194598
w 139 138 -127 0.628766
w 139 -138 127 0.13142
w 139 -138 -127 0.323266
w 140 139 128 0.676927
w 140 139 -128 0.327811
w 140 -139 128 0.193796
w 140 -139 -128 0.738764
w 141 140 129 0
w 141 140 -129 1
w 141 -140 129 0
w 141 -140 -129 0
w 142 141 130 0.770335
w 142 141 -130 0.159479
w 142 -141 130 0.111044
w 142 -141 -130 0.656822
w 143 142 131 0.662734
w 143 142 -131 0.719455
w 143 -142 131 0.689965
w 143 -142 -131 0.93436
w 144 143 132 0.0687808
w 144 143 -132 0.954174
w 144 -143 132 0.919826
w 144 -143 -132 0.166891